decision_x1=[0,7];
decision_x2=[0,7];
decision_x3=[0,7];
decision_x4=[0,7];
decision_x5=[0,7];
decision_x6=[0,7];
decision_x7=[0,7];
decision_x8=[0,7];
decision_x9=[0,7];
decision_x10=[0,7];
decision_x11=[0,7];
decision_x12=[0,7];
decision_x13=[0,7];
decision_x14=[0,7];
decision_x15=[0,7];
decision_x16=[0,7];
random_y1=[0,7];
random_y2=[0,7];
random_y3=[0,7];
random_y4=[0,7];
random_y5=[0,7];
random_y6=[0,7];
random_y7=[0,7];
constraint_x2_x1=[
0,0,2.5|
0,1,2.9|
0,2,8|
0,3,7.2|
0,4,6.2|
0,5,2.1|
0,6,5.2|
0,7,9.6|
1,0,3|
1,1,2.8|
1,2,4|
1,3,2|
1,4,3.4|
1,5,8.4|
1,6,6.2|
1,7,2.5|
2,0,8.2|
2,1,5.7|
2,2,3.1|
2,3,4.1|
2,4,0.95|
2,5,5.7|
2,6,3.2|
2,7,7.2|
3,0,9.6|
3,1,0.053|
3,2,4.5|
3,3,6.3|
3,4,7.4|
3,5,7.3|
3,6,0.33|
3,7,2.5|
4,0,8.5|
4,1,9.9|
4,2,0.023|
4,3,6.8|
4,4,5.6|
4,5,8.5|
4,6,2.1|
4,7,8.6|
5,0,2.6|
5,1,0.76|
5,2,4.6|
5,3,6.8|
5,4,6.8|
5,5,2.6|
5,6,9.6|
5,7,9.5|
6,0,7.6|
6,1,1.7|
6,2,9.7|
6,3,0.35|
6,4,7.7|
6,5,0.81|
6,6,7.4|
6,7,5.9|
7,0,0.19|
7,1,4.6|
7,2,7|
7,3,0.71|
7,4,0.11|
7,5,0.99|
7,6,9.3|
7,7,4.2|
];
constraint_x3_x2=[
0,0,4.7|
0,1,9.6|
0,2,8.4|
0,3,8|
0,4,8.8|
0,5,9.2|
0,6,7.3|
0,7,2.2|
1,0,7.3|
1,1,6.7|
1,2,6.2|
1,3,9.8|
1,4,3.8|
1,5,2.7|
1,6,3.8|
1,7,9.4|
2,0,2.5|
2,1,1.1|
2,2,3|
2,3,6.1|
2,4,2.7|
2,5,3.1|
2,6,5.9|
2,7,3.4|
3,0,7.9|
3,1,1.8|
3,2,6.8|
3,3,7.2|
3,4,4.9|
3,5,9.4|
3,6,7.4|
3,7,1.9|
4,0,2.2|
4,1,3.1|
4,2,6.8|
4,3,9.3|
4,4,1.1|
4,5,0.22|
4,6,2.8|
4,7,2.4|
5,0,9.5|
5,1,9.8|
5,2,7.4|
5,3,3.5|
5,4,9.2|
5,5,2.8|
5,6,6.2|
5,7,8.5|
6,0,9.5|
6,1,6|
6,2,9.7|
6,3,8.4|
6,4,5.7|
6,5,9.3|
6,6,6.3|
6,7,4.6|
7,0,3.2|
7,1,3.9|
7,2,0.82|
7,3,3.5|
7,4,5.8|
7,5,1.5|
7,6,2.7|
7,7,8|
];
constraint_x4_x3=[
0,0,0.055|
0,1,7.2|
0,2,9|
0,3,2|
0,4,5.1|
0,5,4.1|
0,6,9|
0,7,1.9|
1,0,7|
1,1,1.3|
1,2,4.6|
1,3,7.4|
1,4,9.9|
1,5,4|
1,6,5.5|
1,7,5.2|
2,0,4.3|
2,1,4.8|
2,2,1.1|
2,3,2.8|
2,4,1.5|
2,5,9|
2,6,1.8|
2,7,5.3|
3,0,2.4|
3,1,3.5|
3,2,0.23|
3,3,7.1|
3,4,3.5|
3,5,4.6|
3,6,8.7|
3,7,7.1|
4,0,9.2|
4,1,5.4|
4,2,9.5|
4,3,6.1|
4,4,2.5|
4,5,4.8|
4,6,2.8|
4,7,8.6|
5,0,7.4|
5,1,9.8|
5,2,2.5|
5,3,0.2|
5,4,7|
5,5,9.6|
5,6,5.5|
5,7,1.6|
6,0,8.4|
6,1,1.8|
6,2,8.1|
6,3,4.2|
6,4,9.9|
6,5,4.9|
6,6,7.5|
6,7,2.2|
7,0,6|
7,1,6.5|
7,2,3.8|
7,3,6.5|
7,4,6.1|
7,5,9.1|
7,6,8.9|
7,7,5|
];
constraint_x5_x1=[
0,0,8.1|
0,1,10|
0,2,0.17|
0,3,10|
0,4,7.6|
0,5,5.7|
0,6,3.2|
0,7,4.4|
1,0,0.71|
1,1,8|
1,2,4.5|
1,3,0.27|
1,4,2.6|
1,5,3.3|
1,6,6.4|
1,7,0.27|
2,0,3.9|
2,1,6.1|
2,2,2.8|
2,3,1.7|
2,4,3.6|
2,5,8.6|
2,6,8.7|
2,7,5.7|
3,0,0.97|
3,1,2.4|
3,2,9.3|
3,3,5.1|
3,4,7.8|
3,5,5.6|
3,6,3.5|
3,7,5.3|
4,0,7.8|
4,1,5.7|
4,2,8.2|
4,3,0.56|
4,4,8.9|
4,5,2.2|
4,6,0.44|
4,7,5.9|
5,0,1.2|
5,1,7.6|
5,2,6.5|
5,3,2.6|
5,4,8.1|
5,5,8.2|
5,6,8|
5,7,4.9|
6,0,3.4|
6,1,3.6|
6,2,2.3|
6,3,4.2|
6,4,4.1|
6,5,5.6|
6,6,5.8|
6,7,0.51|
7,0,2.1|
7,1,0.036|
7,2,5.3|
7,3,4.1|
7,4,6.7|
7,5,8.7|
7,6,1.3|
7,7,0.53|
];
constraint_x6_x2=[
0,0,8.6|
0,1,3.6|
0,2,3.3|
0,3,3.2|
0,4,6.2|
0,5,2.8|
0,6,1|
0,7,5.2|
1,0,3|
1,1,5.2|
1,2,2.8|
1,3,6.4|
1,4,2.5|
1,5,2.6|
1,6,3.6|
1,7,5.7|
2,0,4.1|
2,1,8.6|
2,2,9.3|
2,3,8.9|
2,4,1.8|
2,5,4.1|
2,6,2.1|
2,7,7.3|
3,0,1.6|
3,1,6.1|
3,2,2.7|
3,3,5.3|
3,4,8.5|
3,5,4.5|
3,6,9.5|
3,7,9.4|
4,0,6.1|
4,1,9.8|
4,2,1.1|
4,3,9|
4,4,0.66|
4,5,8.9|
4,6,9.1|
4,7,6.3|
5,0,0.0076|
5,1,3|
5,2,0.081|
5,3,4.7|
5,4,0.32|
5,5,0.82|
5,6,1.1|
5,7,7.6|
6,0,2.4|
6,1,2.8|
6,2,6.7|
6,3,7.6|
6,4,6.3|
6,5,9.4|
6,6,6|
6,7,4.9|
7,0,0.71|
7,1,3.6|
7,2,5.7|
7,3,1.9|
7,4,0.2|
7,5,0.2|
7,6,9.5|
7,7,0.24|
];
constraint_x6_x5=[
0,0,4.5|
0,1,2.9|
0,2,2.7|
0,3,8.1|
0,4,2.7|
0,5,0.36|
0,6,2.8|
0,7,2.7|
1,0,2.6|
1,1,1.9|
1,2,4.3|
1,3,7.5|
1,4,2.8|
1,5,2.2|
1,6,0.3|
1,7,9.7|
2,0,7.3|
2,1,5.8|
2,2,7.5|
2,3,7.9|
2,4,5|
2,5,7.6|
2,6,5|
2,7,1.7|
3,0,2.9|
3,1,4.7|
3,2,7.5|
3,3,1.1|
3,4,8.7|
3,5,0.74|
3,6,4.7|
3,7,4.1|
4,0,0.34|
4,1,0.9|
4,2,7.3|
4,3,1.5|
4,4,6.2|
4,5,5.5|
4,6,7.9|
4,7,3.7|
5,0,2.7|
5,1,8.4|
5,2,9.3|
5,3,0.027|
5,4,3|
5,5,3.5|
5,6,4|
5,7,3|
6,0,2.2|
6,1,2|
6,2,0.81|
6,3,2.7|
6,4,6.7|
6,5,3.1|
6,6,4.8|
6,7,2.6|
7,0,0.76|
7,1,1.3|
7,2,6.6|
7,3,1.1|
7,4,5.9|
7,5,8.9|
7,6,0.82|
7,7,2|
];
constraint_x7_x3=[
0,0,3.2|
0,1,8.3|
0,2,1.3|
0,3,6.6|
0,4,5.4|
0,5,5.6|
0,6,0.96|
0,7,8.1|
1,0,3.8|
1,1,8.5|
1,2,1.1|
1,3,5.5|
1,4,2.6|
1,5,1.2|
1,6,4.3|
1,7,5.1|
2,0,1.1|
2,1,8.2|
2,2,1.5|
2,3,0.55|
2,4,0.086|
2,5,3.8|
2,6,8.2|
2,7,8.1|
3,0,4.3|
3,1,5.2|
3,2,8.8|
3,3,9.1|
3,4,4.4|
3,5,9.8|
3,6,2.5|
3,7,6.1|
4,0,5.1|
4,1,6.1|
4,2,9.9|
4,3,1.5|
4,4,3.7|
4,5,4.6|
4,6,6.3|
4,7,1.7|
5,0,3.9|
5,1,3.5|
5,2,7.4|
5,3,8|
5,4,0.58|
5,5,1.2|
5,6,2.2|
5,7,7|
6,0,1.5|
6,1,7.3|
6,2,9|
6,3,7.3|
6,4,1.5|
6,5,6.8|
6,6,5.4|
6,7,8|
7,0,1.5|
7,1,6.2|
7,2,1|
7,3,5.2|
7,4,9.8|
7,5,3.6|
7,6,2.9|
7,7,1.3|
];
constraint_x7_x6=[
0,0,9.8|
0,1,5.1|
0,2,8.4|
0,3,9.8|
0,4,8.5|
0,5,2.4|
0,6,1.1|
0,7,5.8|
1,0,3.1|
1,1,1.8|
1,2,9.6|
1,3,7.4|
1,4,5.5|
1,5,8.3|
1,6,7.6|
1,7,0.023|
2,0,9.7|
2,1,3.7|
2,2,0.067|
2,3,4.4|
2,4,8.9|
2,5,5.9|
2,6,1.5|
2,7,3.2|
3,0,1.8|
3,1,7.7|
3,2,0.28|
3,3,6.9|
3,4,6|
3,5,3.6|
3,6,5.3|
3,7,5.5|
4,0,2|
4,1,0.65|
4,2,3.8|
4,3,9.5|
4,4,8.4|
4,5,2.5|
4,6,4.8|
4,7,3.6|
5,0,6.5|
5,1,8|
5,2,6.6|
5,3,5.2|
5,4,7.4|
5,5,9.6|
5,6,2.6|
5,7,6.9|
6,0,6.6|
6,1,8.3|
6,2,2.8|
6,3,5|
6,4,8.1|
6,5,2.8|
6,6,2.5|
6,7,3.9|
7,0,5.3|
7,1,6.5|
7,2,5.7|
7,3,3.7|
7,4,2|
7,5,5.4|
7,6,2.7|
7,7,4.4|
];
constraint_x8_x4=[
0,0,8|
0,1,7.1|
0,2,8|
0,3,8.5|
0,4,0.97|
0,5,0.26|
0,6,3|
0,7,6.4|
1,0,7.7|
1,1,10|
1,2,3.2|
1,3,6.1|
1,4,5.2|
1,5,3.7|
1,6,3.5|
1,7,5.2|
2,0,9|
2,1,4.9|
2,2,8.8|
2,3,6.8|
2,4,9.6|
2,5,7.4|
2,6,1.3|
2,7,2.4|
3,0,3.3|
3,1,6.6|
3,2,0.94|
3,3,5.8|
3,4,6.4|
3,5,9.4|
3,6,0.38|
3,7,4.5|
4,0,5|
4,1,0.56|
4,2,5.1|
4,3,5.6|
4,4,8|
4,5,2.5|
4,6,3.9|
4,7,6.3|
5,0,6.1|
5,1,0.4|
5,2,1.6|
5,3,7.3|
5,4,5.6|
5,5,6.2|
5,6,1|
5,7,2.3|
6,0,3.9|
6,1,8.4|
6,2,6.7|
6,3,8.5|
6,4,1.6|
6,5,5.1|
6,6,1.6|
6,7,8.1|
7,0,3.7|
7,1,5.5|
7,2,5.6|
7,3,6.4|
7,4,7.3|
7,5,7.9|
7,6,0.62|
7,7,0.9|
];
constraint_x8_x7=[
0,0,1.7|
0,1,8.8|
0,2,9.5|
0,3,9.7|
0,4,7.3|
0,5,3.1|
0,6,8.8|
0,7,4|
1,0,1.4|
1,1,5.2|
1,2,5.6|
1,3,6.5|
1,4,0.82|
1,5,4.5|
1,6,5.4|
1,7,5.3|
2,0,9.7|
2,1,3.2|
2,2,5.1|
2,3,7.2|
2,4,8|
2,5,2.9|
2,6,0.26|
2,7,8.9|
3,0,2.2|
3,1,8|
3,2,1.1|
3,3,0.72|
3,4,4.6|
3,5,0.49|
3,6,4.2|
3,7,4|
4,0,9.6|
4,1,7.2|
4,2,9.7|
4,3,8.6|
4,4,1.1|
4,5,2.2|
4,6,10|
4,7,2.3|
5,0,6.2|
5,1,8.9|
5,2,8|
5,3,8.5|
5,4,8.5|
5,5,5.3|
5,6,1.6|
5,7,8.7|
6,0,0.88|
6,1,5|
6,2,0.016|
6,3,1.4|
6,4,7.2|
6,5,6.1|
6,6,2.8|
6,7,3|
7,0,1.8|
7,1,5.2|
7,2,7.8|
7,3,9|
7,4,2.2|
7,5,6|
7,6,1.1|
7,7,5.2|
];
constraint_x9_x5=[
0,0,5.8|
0,1,9.9|
0,2,4.5|
0,3,7|
0,4,4.6|
0,5,5.6|
0,6,3.1|
0,7,6.7|
1,0,5|
1,1,3.6|
1,2,2.5|
1,3,7.8|
1,4,4.6|
1,5,7|
1,6,8|
1,7,7.4|
2,0,9.6|
2,1,6.9|
2,2,6.9|
2,3,7.4|
2,4,3.5|
2,5,2.2|
2,6,4.4|
2,7,2.8|
3,0,7.1|
3,1,5.5|
3,2,6.1|
3,3,4.9|
3,4,2.7|
3,5,1.8|
3,6,1.9|
3,7,4.9|
4,0,4|
4,1,5.1|
4,2,7.2|
4,3,4.7|
4,4,5.8|
4,5,5.1|
4,6,9.2|
4,7,4.1|
5,0,7.2|
5,1,0.97|
5,2,1|
5,3,1.6|
5,4,6.7|
5,5,5.8|
5,6,8.8|
5,7,5.5|
6,0,4.8|
6,1,3|
6,2,7.2|
6,3,0.67|
6,4,9|
6,5,4.6|
6,6,10|
6,7,0.48|
7,0,8.1|
7,1,7.5|
7,2,9.1|
7,3,1.4|
7,4,4.8|
7,5,9|
7,6,4.9|
7,7,7|
];
constraint_x10_x6=[
0,0,3.7|
0,1,8.7|
0,2,8|
0,3,3.1|
0,4,2.7|
0,5,3.8|
0,6,7.6|
0,7,2.9|
1,0,6.9|
1,1,4.8|
1,2,2.5|
1,3,5.5|
1,4,4.7|
1,5,6.7|
1,6,9|
1,7,8.5|
2,0,3.7|
2,1,8.6|
2,2,1.1|
2,3,2.3|
2,4,0.55|
2,5,0.13|
2,6,2.4|
2,7,2.4|
3,0,4.1|
3,1,0.37|
3,2,4.2|
3,3,2.5|
3,4,8.6|
3,5,4.5|
3,6,0.8|
3,7,8.7|
4,0,6.5|
4,1,0.066|
4,2,0.17|
4,3,0.52|
4,4,7.8|
4,5,5.2|
4,6,6.3|
4,7,8.3|
5,0,5.6|
5,1,2.9|
5,2,7.9|
5,3,4.9|
5,4,5.5|
5,5,3.6|
5,6,1.4|
5,7,3.9|
6,0,3|
6,1,7.2|
6,2,2|
6,3,9.9|
6,4,0.49|
6,5,4.5|
6,6,3.8|
6,7,8.5|
7,0,1.8|
7,1,4.3|
7,2,1.5|
7,3,3.9|
7,4,5.7|
7,5,2.2|
7,6,6.2|
7,7,0.79|
];
constraint_x11_x7=[
0,0,1.4|
0,1,0.62|
0,2,6.6|
0,3,3.8|
0,4,7.4|
0,5,0.27|
0,6,6.8|
0,7,0.52|
1,0,6|
1,1,7.2|
1,2,4.6|
1,3,2.8|
1,4,7.1|
1,5,7|
1,6,9.8|
1,7,2.1|
2,0,4.6|
2,1,1.1|
2,2,6.6|
2,3,2.9|
2,4,3.7|
2,5,3.1|
2,6,4.3|
2,7,9.9|
3,0,6.2|
3,1,9.2|
3,2,4.1|
3,3,4.5|
3,4,1.9|
3,5,4.2|
3,6,8.2|
3,7,1|
4,0,8.6|
4,1,6.2|
4,2,1.3|
4,3,8.1|
4,4,6.4|
4,5,4.7|
4,6,4.9|
4,7,7.8|
5,0,7.4|
5,1,3.3|
5,2,9.9|
5,3,5.8|
5,4,3.2|
5,5,6.9|
5,6,0.99|
5,7,8.3|
6,0,4.8|
6,1,7.1|
6,2,6.8|
6,3,6.8|
6,4,8.3|
6,5,7.9|
6,6,3|
6,7,7.5|
7,0,2.4|
7,1,9|
7,2,4.7|
7,3,0.61|
7,4,6.3|
7,5,6.3|
7,6,5.8|
7,7,2.8|
];
constraint_x12_x8=[
0,0,9.8|
0,1,6|
0,2,2.1|
0,3,7.5|
0,4,0.089|
0,5,0.37|
0,6,3.1|
0,7,5.3|
1,0,0.33|
1,1,0.79|
1,2,5|
1,3,0.58|
1,4,2.3|
1,5,4.6|
1,6,1.8|
1,7,8.9|
2,0,0.78|
2,1,4.1|
2,2,6.2|
2,3,6|
2,4,1.9|
2,5,6.9|
2,6,2.3|
2,7,4|
3,0,5.2|
3,1,1.1|
3,2,8.9|
3,3,2.7|
3,4,8.8|
3,5,1.4|
3,6,6.4|
3,7,0.51|
4,0,5.7|
4,1,5.5|
4,2,6.4|
4,3,6|
4,4,4|
4,5,4.2|
4,6,4.9|
4,7,8.6|
5,0,2.8|
5,1,1.7|
5,2,3.2|
5,3,8.4|
5,4,5.6|
5,5,1.5|
5,6,5.2|
5,7,4|
6,0,1.4|
6,1,6.2|
6,2,4.3|
6,3,3.8|
6,4,0.8|
6,5,4.2|
6,6,0.22|
6,7,6.6|
7,0,8.3|
7,1,9.4|
7,2,9.9|
7,3,4.7|
7,4,3.6|
7,5,8.8|
7,6,4.5|
7,7,9.8|
];
constraint_x13_x9=[
0,0,7.2|
0,1,2.6|
0,2,5|
0,3,9.6|
0,4,3.3|
0,5,7|
0,6,0.7|
0,7,0.67|
1,0,5|
1,1,5.5|
1,2,1.4|
1,3,6|
1,4,3|
1,5,5|
1,6,4.8|
1,7,1.5|
2,0,6.4|
2,1,8.5|
2,2,5.9|
2,3,8.1|
2,4,4.9|
2,5,2.9|
2,6,5.9|
2,7,3.2|
3,0,0.26|
3,1,9.5|
3,2,6.6|
3,3,6.3|
3,4,3.1|
3,5,1.5|
3,6,6.4|
3,7,1.4|
4,0,8.7|
4,1,7.6|
4,2,5.2|
4,3,1.8|
4,4,7.1|
4,5,6.3|
4,6,9.2|
4,7,8.7|
5,0,8.2|
5,1,1.2|
5,2,6.7|
5,3,2|
5,4,9.3|
5,5,0.16|
5,6,8|
5,7,6.3|
6,0,0.95|
6,1,2.2|
6,2,0.67|
6,3,5.1|
6,4,1.3|
6,5,1.2|
6,6,0.29|
6,7,2.7|
7,0,2.1|
7,1,3.7|
7,2,9.6|
7,3,5.7|
7,4,4.6|
7,5,7.9|
7,6,2.4|
7,7,7.9|
];
constraint_x14_x10=[
0,0,5.3|
0,1,7|
0,2,5.9|
0,3,3.1|
0,4,4.4|
0,5,2.7|
0,6,8.8|
0,7,9.1|
1,0,2.2|
1,1,4|
1,2,5|
1,3,9.3|
1,4,6.1|
1,5,0.48|
1,6,1.9|
1,7,5.4|
2,0,2.3|
2,1,3.2|
2,2,4.3|
2,3,6.3|
2,4,3.4|
2,5,6.1|
2,6,1.7|
2,7,8.8|
3,0,6.8|
3,1,1.8|
3,2,5.6|
3,3,5|
3,4,5.1|
3,5,2.1|
3,6,5.3|
3,7,1.4|
4,0,2.5|
4,1,4.7|
4,2,6.6|
4,3,8.9|
4,4,8.6|
4,5,1.2|
4,6,5.5|
4,7,9.8|
5,0,1.8|
5,1,2.9|
5,2,5.9|
5,3,5.2|
5,4,1.8|
5,5,0.66|
5,6,2.6|
5,7,2|
6,0,3.4|
6,1,3.5|
6,2,0.33|
6,3,4.3|
6,4,2.3|
6,5,4|
6,6,7.3|
6,7,2.6|
7,0,9.2|
7,1,1.5|
7,2,0.48|
7,3,5.2|
7,4,6.6|
7,5,3.1|
7,6,9|
7,7,0.59|
];
constraint_x15_x11=[
0,0,3.9|
0,1,4.2|
0,2,2.9|
0,3,8.5|
0,4,9.6|
0,5,0.87|
0,6,8.6|
0,7,3.8|
1,0,1.4|
1,1,8.6|
1,2,8.3|
1,3,0.086|
1,4,4.7|
1,5,6.7|
1,6,9.5|
1,7,9|
2,0,5.1|
2,1,2.1|
2,2,6.2|
2,3,6.5|
2,4,9.4|
2,5,0.61|
2,6,2.3|
2,7,6|
3,0,7.4|
3,1,3.8|
3,2,4.9|
3,3,5.8|
3,4,6.6|
3,5,9.8|
3,6,0.21|
3,7,4.7|
4,0,0.64|
4,1,1.8|
4,2,4.3|
4,3,5.3|
4,4,6.2|
4,5,8.9|
4,6,9.4|
4,7,2.3|
5,0,8.9|
5,1,4.7|
5,2,1.5|
5,3,8.1|
5,4,3.9|
5,5,0.24|
5,6,2.4|
5,7,2.5|
6,0,1.3|
6,1,0.44|
6,2,3.1|
6,3,4.8|
6,4,5.6|
6,5,2.5|
6,6,1.2|
6,7,7.1|
7,0,4.3|
7,1,6.6|
7,2,1.5|
7,3,9.4|
7,4,9.3|
7,5,1.2|
7,6,5.4|
7,7,5.2|
];
constraint_x16_x12=[
0,0,9.4|
0,1,1.7|
0,2,0.73|
0,3,0.32|
0,4,2.3|
0,5,5.7|
0,6,8.1|
0,7,3.6|
1,0,0.99|
1,1,6.6|
1,2,4.6|
1,3,6.9|
1,4,4.7|
1,5,7.8|
1,6,1.1|
1,7,10|
2,0,8.3|
2,1,8.6|
2,2,0.37|
2,3,2.3|
2,4,4.4|
2,5,3.4|
2,6,6.3|
2,7,2.3|
3,0,7.3|
3,1,8.5|
3,2,8.3|
3,3,0.84|
3,4,0.84|
3,5,7.4|
3,6,9.9|
3,7,5.4|
4,0,7.2|
4,1,1.9|
4,2,2.8|
4,3,4.3|
4,4,3.5|
4,5,9.9|
4,6,3.2|
4,7,8.7|
5,0,3.7|
5,1,5.5|
5,2,5.6|
5,3,5.2|
5,4,2.4|
5,5,1.6|
5,6,3.7|
5,7,7.1|
6,0,1.9|
6,1,9.3|
6,2,8.6|
6,3,1|
6,4,5.2|
6,5,6.8|
6,6,1.4|
6,7,0.54|
7,0,4.1|
7,1,2.6|
7,2,7.9|
7,3,9.7|
7,4,5.1|
7,5,3.1|
7,6,1.2|
7,7,7.6|
];
constraint_x1_y1=[
0,0,7.7|
0,1,1.1|
0,2,5.5|
0,3,0.56|
0,4,4.7|
0,5,3.7|
0,6,2.4|
0,7,4.6|
1,0,0.34|
1,1,0.18|
1,2,1.8|
1,3,3.4|
1,4,5.8|
1,5,0.78|
1,6,3.9|
1,7,0.48|
2,0,3.5|
2,1,8.7|
2,2,8|
2,3,4.3|
2,4,9|
2,5,4.2|
2,6,3.5|
2,7,2.8|
3,0,5.3|
3,1,1.7|
3,2,7.4|
3,3,7.7|
3,4,4.6|
3,5,6.7|
3,6,7|
3,7,7.2|
4,0,9.3|
4,1,8.6|
4,2,2.7|
4,3,5.2|
4,4,2.4|
4,5,5.8|
4,6,2.4|
4,7,1.6|
5,0,6.5|
5,1,0.052|
5,2,5.7|
5,3,9.5|
5,4,5.6|
5,5,9.3|
5,6,5.8|
5,7,2.2|
6,0,1|
6,1,5.3|
6,2,0.87|
6,3,2.3|
6,4,8.6|
6,5,0.0044|
6,6,3.8|
6,7,5.1|
7,0,7.1|
7,1,0.064|
7,2,8.3|
7,3,8.2|
7,4,8.4|
7,5,7.1|
7,6,3.7|
7,7,1.2|
];
constraint_x2_y2=[
0,0,6.9|
0,1,1|
0,2,6|
0,3,0.99|
0,4,7.1|
0,5,0.22|
0,6,3.5|
0,7,8.2|
1,0,6.9|
1,1,5.9|
1,2,3.1|
1,3,4.1|
1,4,8|
1,5,5.9|
1,6,5.2|
1,7,0.58|
2,0,6.7|
2,1,9.6|
2,2,5.6|
2,3,8.9|
2,4,5|
2,5,5|
2,6,0.84|
2,7,3.1|
3,0,3.7|
3,1,9.3|
3,2,2.9|
3,3,7.1|
3,4,3.9|
3,5,9.5|
3,6,1.7|
3,7,10|
4,0,2.1|
4,1,8.8|
4,2,9.9|
4,3,9.3|
4,4,2.2|
4,5,9.2|
4,6,4.5|
4,7,8.8|
5,0,3.6|
5,1,4.9|
5,2,5.9|
5,3,9|
5,4,0.16|
5,5,7.9|
5,6,2.7|
5,7,8|
6,0,5.6|
6,1,5|
6,2,9.2|
6,3,9.8|
6,4,2|
6,5,4.9|
6,6,8.3|
6,7,0.5|
7,0,7.1|
7,1,6.9|
7,2,0.057|
7,3,2.8|
7,4,3.1|
7,5,2.4|
7,6,2.9|
7,7,7|
];
constraint_x3_y3=[
0,0,3.9|
0,1,9.5|
0,2,9.4|
0,3,6.6|
0,4,1.9|
0,5,5.5|
0,6,8.4|
0,7,9.6|
1,0,2.1|
1,1,3.3|
1,2,2.7|
1,3,8.6|
1,4,5.1|
1,5,4.6|
1,6,6.3|
1,7,2.8|
2,0,4.7|
2,1,2.7|
2,2,3.4|
2,3,1.3|
2,4,0.39|
2,5,4.5|
2,6,1.9|
2,7,0.62|
3,0,9.6|
3,1,2.6|
3,2,0.39|
3,3,1.2|
3,4,4.3|
3,5,2.4|
3,6,4.1|
3,7,4.4|
4,0,8.8|
4,1,5.6|
4,2,7.3|
4,3,9.4|
4,4,3.2|
4,5,2.3|
4,6,7.1|
4,7,8.3|
5,0,8.2|
5,1,3|
5,2,2.3|
5,3,8.3|
5,4,9.2|
5,5,5.6|
5,6,9.4|
5,7,9.2|
6,0,8.2|
6,1,1.6|
6,2,9.5|
6,3,5.8|
6,4,5.1|
6,5,3.8|
6,6,0.67|
6,7,9.2|
7,0,8.1|
7,1,7.3|
7,2,3.3|
7,3,4.9|
7,4,2|
7,5,2.4|
7,6,5.1|
7,7,8.9|
];
constraint_x4_y4=[
0,0,2.4|
0,1,4.9|
0,2,6|
0,3,4.7|
0,4,7.8|
0,5,6.7|
0,6,1.6|
0,7,4.5|
1,0,4.7|
1,1,5.2|
1,2,8.1|
1,3,0.52|
1,4,2.2|
1,5,6.5|
1,6,8.4|
1,7,1.7|
2,0,1.7|
2,1,9.5|
2,2,2.3|
2,3,9.2|
2,4,8.8|
2,5,8.3|
2,6,0.74|
2,7,6|
3,0,8.9|
3,1,2.8|
3,2,1.3|
3,3,2.8|
3,4,4.7|
3,5,9.5|
3,6,8.7|
3,7,0.27|
4,0,4.4|
4,1,9.3|
4,2,9.5|
4,3,0.96|
4,4,7.1|
4,5,9.7|
4,6,7.9|
4,7,4|
5,0,2.1|
5,1,1|
5,2,8.7|
5,3,3.1|
5,4,10|
5,5,1.2|
5,6,6.7|
5,7,0.74|
6,0,0.25|
6,1,0.05|
6,2,3.7|
6,3,1.4|
6,4,2.6|
6,5,9.3|
6,6,5|
6,7,0.11|
7,0,8.3|
7,1,1.4|
7,2,0.64|
7,3,4.7|
7,4,2.2|
7,5,7.8|
7,6,8.5|
7,7,9.6|
];
constraint_x5_y5=[
0,0,6.2|
0,1,9|
0,2,7.4|
0,3,3.5|
0,4,9.2|
0,5,7.9|
0,6,0.63|
0,7,4|
1,0,3.6|
1,1,3.9|
1,2,1.6|
1,3,8.3|
1,4,0.012|
1,5,3.8|
1,6,5|
1,7,1.7|
2,0,8|
2,1,8.6|
2,2,9|
2,3,8.9|
2,4,1.9|
2,5,2.7|
2,6,1.4|
2,7,8.2|
3,0,5.5|
3,1,1.2|
3,2,7.1|
3,3,9|
3,4,9|
3,5,4|
3,6,7.1|
3,7,6.5|
4,0,5.1|
4,1,3.2|
4,2,6.2|
4,3,2.8|
4,4,3.8|
4,5,7.2|
4,6,0.56|
4,7,7.9|
5,0,4.9|
5,1,7.7|
5,2,0.51|
5,3,7.6|
5,4,6.7|
5,5,0.32|
5,6,9.4|
5,7,7.3|
6,0,4.3|
6,1,6.4|
6,2,3.2|
6,3,5|
6,4,1.2|
6,5,1.8|
6,6,2.4|
6,7,4.5|
7,0,5.7|
7,1,6.1|
7,2,1.2|
7,3,0.085|
7,4,1.4|
7,5,1.7|
7,6,6|
7,7,5.4|
];
constraint_x6_y6=[
0,0,2.9|
0,1,1.7|
0,2,5.8|
0,3,1.2|
0,4,5.6|
0,5,4.4|
0,6,9.2|
0,7,8.2|
1,0,3.3|
1,1,3.7|
1,2,9.5|
1,3,7.1|
1,4,9.2|
1,5,9.9|
1,6,3.5|
1,7,3.6|
2,0,1.5|
2,1,0.3|
2,2,8.4|
2,3,7.8|
2,4,3.6|
2,5,4.3|
2,6,0.65|
2,7,6.4|
3,0,1.7|
3,1,2.1|
3,2,0.98|
3,3,2.5|
3,4,2.5|
3,5,7.3|
3,6,7.8|
3,7,1.9|
4,0,7.6|
4,1,6.1|
4,2,9.6|
4,3,2.1|
4,4,5|
4,5,5|
4,6,0.71|
4,7,7.8|
5,0,8.8|
5,1,5.4|
5,2,1.7|
5,3,5.9|
5,4,9.9|
5,5,2.6|
5,6,5.5|
5,7,8.7|
6,0,7.3|
6,1,5|
6,2,6.7|
6,3,4.4|
6,4,0.98|
6,5,2.9|
6,6,9.2|
6,7,2.2|
7,0,8.3|
7,1,8.4|
7,2,7.5|
7,3,7.4|
7,4,5.4|
7,5,7.9|
7,6,6.4|
7,7,4.3|
];
constraint_x7_y7=[
0,0,5.6|
0,1,1.3|
0,2,6.8|
0,3,1.9|
0,4,6.8|
0,5,3.5|
0,6,0.56|
0,7,7.4|
1,0,8|
1,1,3.8|
1,2,4.1|
1,3,7.3|
1,4,8.6|
1,5,8.3|
1,6,1.9|
1,7,7.9|
2,0,6.5|
2,1,2.5|
2,2,5.5|
2,3,8.8|
2,4,0.53|
2,5,5.8|
2,6,2.4|
2,7,9.7|
3,0,1.6|
3,1,6|
3,2,2.5|
3,3,1.9|
3,4,3.4|
3,5,3.8|
3,6,1.1|
3,7,2.7|
4,0,2|
4,1,1.1|
4,2,2.2|
4,3,9.8|
4,4,0.27|
4,5,7.7|
4,6,1.7|
4,7,7.2|
5,0,9.5|
5,1,5.3|
5,2,8.7|
5,3,0.29|
5,4,7.1|
5,5,3.1|
5,6,5.3|
5,7,9.7|
6,0,9.7|
6,1,3|
6,2,9.4|
6,3,6.7|
6,4,3.3|
6,5,7.9|
6,6,7.7|
6,7,2.1|
7,0,1.2|
7,1,5.6|
7,2,4.6|
7,3,8.7|
7,4,1.3|
7,5,7|
7,6,9.2|
7,7,9.3|
];
initial_distribution_y1=[0.061,0.16,0.15,0.066,0.17,0.2,0.086,0.11];
initial_distribution_y2=[0.088,0.066,0.22,0.22,0.086,0.019,0.06,0.24];
initial_distribution_y3=[0.13,0.21,0.13,0.1,0.081,0.053,0.22,0.067];
initial_distribution_y4=[0.081,0.12,0.25,0.03,0.0098,0.11,0.32,0.078];
initial_distribution_y5=[0.069,0.019,0.17,0.17,0.02,0.12,0.23,0.2];
initial_distribution_y6=[0.26,0.038,0.089,0.25,0.021,0.0075,0.23,0.1];
initial_distribution_y7=[0.15,0.013,0.11,0.14,0.063,0.13,0.15,0.24];
transition_y1=[
0.14,0.14,0.14,0.11,0.1,0.16,0.1,0.093|
0.18,0.15,0.074,0.17,0.072,0.17,0.1,0.081|
0.21,0.19,0.16,0.24,0.088,0.022,0.007,0.085|
0.28,0.051,0.091,0.017,0.14,0.16,0.096,0.16|
0.22,0.036,0.22,0.13,0.21,0.028,0.11,0.052|
0.094,0.16,0.019,0.13,0.054,0.27,0.2,0.074|
0.21,0.056,0.16,0.17,0.25,0.057,0.039,0.056|
0.049,0.22,0.19,0.11,0.24,0.0074,0.17,0.018|
];
transition_y2=[
0.02,0.15,0.042,0.17,0.17,0.19,0.074,0.18|
0.12,0.18,0.15,0.031,0.028,0.26,0.018,0.23|
0.23,0.16,0.1,0.17,0.012,0.07,0.18,0.079|
0.035,0.21,0.2,0.15,0.011,0.21,0.16,0.027|
0.2,0.091,0.21,0.0072,0.18,0.13,0.15,0.036|
0.023,0.12,0.23,0.24,0.18,0.03,0.13,0.047|
0.014,0.11,0.15,0.11,0.21,0.046,0.13,0.22|
0.14,0.18,0.1,0.15,0.041,0.018,0.12,0.25|
];
transition_y3=[
0.0047,0.19,0.029,0.13,0.15,0.12,0.2,0.17|
0.15,0.11,0.04,0.16,0.19,0.057,0.19,0.087|
0.18,0.24,0.18,0.044,0.14,0.15,0.027,0.036|
0.17,0.073,0.078,0.21,0.15,0.014,0.12,0.18|
0.21,0.21,0.039,0.19,0.028,0.052,0.23,0.044|
0.0092,0.07,0.22,0.0096,0.13,0.2,0.23,0.14|
0.23,0.11,0.17,0.25,0.082,0.11,0.032,0.023|
0.23,0.013,0.088,0.22,0.091,0.096,0.081,0.18|
];
transition_y4=[
0.14,0.086,0.13,0.14,0.14,0.079,0.14,0.15|
0.093,0.12,0.094,0.16,0.091,0.18,0.11,0.14|
0.25,0.0074,0.055,0.028,0.065,0.28,0.12,0.19|
0.12,0.17,0.18,0.15,0.1,0.032,0.13,0.13|
0.1,0.021,0.18,0.19,0.11,0.15,0.16,0.078|
0.01,0.34,0.065,0.014,0.1,0.25,0.21,0.0061|
0.11,0.15,0.13,0.12,0.13,0.15,0.1,0.099|
0.021,0.012,0.25,0.27,0.11,0.11,0.17,0.054|
];
transition_y5=[
0.17,0.048,0.12,0.15,0.21,0.086,0.16,0.057|
0.085,0.045,0.22,0.15,0.14,0.091,0.22,0.037|
0.17,0.03,0.054,0.2,0.078,0.24,0.19,0.029|
0.072,0.057,0.25,0.096,0.16,0.22,0.07,0.076|
0.19,0.18,0.24,0.065,0.091,0.035,0.12,0.09|
0.11,0.0074,0.13,0.22,0.19,0.11,0.13,0.11|
0.044,0.078,0.22,0.14,0.23,0.036,0.2,0.044|
0.21,0.12,0.15,0.051,0.11,0.15,0.043,0.16|
];
transition_y6=[
0.024,0.26,0.3,0.095,0.15,0.099,0.007,0.061|
0.12,0.022,0.23,0.1,0.083,0.16,0.16,0.12|
0.16,0.14,0.16,0.12,0.016,0.15,0.0063,0.24|
0.19,0.04,0.12,0.14,0.085,0.19,0.063,0.16|
0.1,0.23,0.036,0.11,0.13,0.22,0.12,0.053|
0.17,0.2,0.17,0.068,0.036,0.066,0.13,0.14|
0.19,0.0032,0.078,0.16,0.23,0.21,0.094,0.025|
0.11,0.15,0.17,0.13,0.13,0.18,0.11,0.026|
];
transition_y7=[
0.13,0.068,0.12,0.15,0.25,0.091,0.087,0.1|
0.07,0.17,0.075,0.2,0.089,0.096,0.16,0.14|
0.15,0.17,0.0093,0.19,0.16,0.1,0.1,0.12|
0.096,0.12,0.072,0.029,0.16,0.17,0.21,0.14|
0.19,0.17,0.089,0.2,0.11,0.15,0.067,0.02|
0.057,0.35,0.19,0.21,0.045,0.046,0.038,0.066|
0.023,0.08,0.23,0.13,0.17,0.039,0.048,0.28|
0.057,0.19,0.19,0.17,0.062,0.082,0.097,0.16|
];
